NAME          DCAP_2_4_3_200_SS182
ROWS
 N  OBJ
 L  CON1
 L  CON2
 L  CON3
 L  CON4
 L  CON5
 L  CON6
 L  CON7
 L  CON8
 L  CON9
 L  CON10
 L  CON11
 L  CON12
 E  CON13
 E  CON14
 E  CON15
 E  CON16
 E  CON17
 E  CON18
 E  CON19
 E  CON20
 E  CON21
 E  CON22
 E  CON23
 E  CON24
COLUMNS
    x[1,1]    OBJ       6.180167      CON1      1.000000    
    x[1,1]    CON7      -1.000000     CON8      -1.000000   
    x[1,1]    CON9      -1.000000   
    x[1,2]    OBJ       6.563535      CON2      1.000000    
    x[1,2]    CON8      -1.000000     CON9      -1.000000   
    x[1,3]    OBJ       7.443064      CON3      1.000000    
    x[1,3]    CON9      -1.000000   
    x[2,1]    OBJ       6.732585      CON4      1.000000    
    x[2,1]    CON10     -1.000000     CON11     -1.000000   
    x[2,1]    CON12     -1.000000   
    x[2,2]    OBJ       5.039546      CON5      1.000000    
    x[2,2]    CON11     -1.000000     CON12     -1.000000   
    x[2,3]    OBJ       6.054841      CON6      1.000000    
    x[2,3]    CON12     -1.000000   
    MARKER    'MARKER'                'INTORG'
    u[1,1]    OBJ       48.076654     CON1      -1.000000   
    u[1,2]    OBJ       20.066487     CON2      -1.000000   
    u[1,3]    OBJ       32.230043     CON3      -1.000000   
    u[2,1]    OBJ       49.996186     CON4      -1.000000   
    u[2,2]    OBJ       49.466655     CON5      -1.000000   
    u[2,3]    OBJ       27.484319     CON6      -1.000000   
    y[1,1,1]  OBJ       6.398868      CON7      0.771547    
    y[1,1,1]  CON13     1.000000    
    y[1,1,2]  OBJ       9.638213      CON8      1.247004    
    y[1,1,2]  CON14     1.000000    
    y[1,1,3]  OBJ       7.858002      CON9      0.633919    
    y[1,1,3]  CON15     1.000000    
    y[1,2,1]  OBJ       9.671191      CON7      1.343417    
    y[1,2,1]  CON16     1.000000    
    y[1,2,2]  OBJ       8.653544      CON8      1.174290    
    y[1,2,2]  CON17     1.000000    
    y[1,2,3]  OBJ       9.743620      CON9      0.989640    
    y[1,2,3]  CON18     1.000000    
    y[1,3,1]  OBJ       5.828087      CON7      1.360479    
    y[1,3,1]  CON19     1.000000    
    y[1,3,2]  OBJ       5.155312      CON8      1.275553    
    y[1,3,2]  CON20     1.000000    
    y[1,3,3]  OBJ       9.712259      CON9      1.294995    
    y[1,3,3]  CON21     1.000000    
    y[1,4,1]  OBJ       6.569446      CON7      0.816875    
    y[1,4,1]  CON22     1.000000    
    y[1,4,2]  OBJ       7.857951      CON8      0.657967    
    y[1,4,2]  CON23     1.000000    
    y[1,4,3]  OBJ       6.748792      CON9      0.726228    
    y[1,4,3]  CON24     1.000000    
    y[2,1,1]  OBJ       6.704524      CON10     0.771547    
    y[2,1,1]  CON13     1.000000    
    y[2,1,2]  OBJ       7.784021      CON11     1.247004    
    y[2,1,2]  CON14     1.000000    
    y[2,1,3]  OBJ       6.141680      CON12     0.633919    
    y[2,1,3]  CON15     1.000000    
    y[2,2,1]  OBJ       6.165454      CON10     1.343417    
    y[2,2,1]  CON16     1.000000    
    y[2,2,2]  OBJ       9.703669      CON11     1.174290    
    y[2,2,2]  CON17     1.000000    
    y[2,2,3]  OBJ       5.423075      CON12     0.989640    
    y[2,2,3]  CON18     1.000000    
    y[2,3,1]  OBJ       7.618313      CON10     1.360479    
    y[2,3,1]  CON19     1.000000    
    y[2,3,2]  OBJ       9.320810      CON11     1.275553    
    y[2,3,2]  CON20     1.000000    
    y[2,3,3]  OBJ       9.761492      CON12     1.294995    
    y[2,3,3]  CON21     1.000000    
    y[2,4,1]  OBJ       9.281832      CON10     0.816875    
    y[2,4,1]  CON22     1.000000    
    y[2,4,2]  OBJ       6.456562      CON11     0.657967    
    y[2,4,2]  CON23     1.000000    
    y[2,4,3]  OBJ       7.684796      CON12     0.726228    
    y[2,4,3]  CON24     1.000000    
    z[1,1]    OBJ       561.276215    CON13     1.000000    
    z[1,2]    OBJ       932.843584    CON14     1.000000    
    z[1,3]    OBJ       947.428403    CON15     1.000000    
    z[2,1]    OBJ       513.137377    CON16     1.000000    
    z[2,2]    OBJ       606.299115    CON17     1.000000    
    z[2,3]    OBJ       777.538150    CON18     1.000000    
    z[3,1]    OBJ       808.558583    CON19     1.000000    
    z[3,2]    OBJ       601.815281    CON20     1.000000    
    z[3,3]    OBJ       700.361080    CON21     1.000000    
    z[4,1]    OBJ       822.446698    CON22     1.000000    
    z[4,2]    OBJ       754.877188    CON23     1.000000    
    z[4,3]    OBJ       941.618779    CON24     1.000000    
    MARKER    'MARKER'                 'INTEND'
RHS
    RHS       CON1      -0.000000     CON2      -0.000000   
    RHS       CON3      -0.000000     CON4      -0.000000   
    RHS       CON5      -0.000000     CON6      -0.000000   
    RHS       CON7      -0.000000     CON8      -0.000000   
    RHS       CON9      -0.000000     CON10     -0.000000   
    RHS       CON11     -0.000000     CON12     -0.000000   
    RHS       CON13     1.000000      CON14     1.000000    
    RHS       CON15     1.000000      CON16     1.000000    
    RHS       CON17     1.000000      CON18     1.000000    
    RHS       CON19     1.000000      CON20     1.000000    
    RHS       CON21     1.000000      CON22     1.000000    
    RHS       CON23     1.000000      CON24     1.000000    
BOUNDS
 BV BOUND     u[1,1]  
 BV BOUND     u[1,2]  
 BV BOUND     u[1,3]  
 BV BOUND     u[2,1]  
 BV BOUND     u[2,2]  
 BV BOUND     u[2,3]  
 BV BOUND     y[1,1,1]
 BV BOUND     y[1,1,2]
 BV BOUND     y[1,1,3]
 BV BOUND     y[1,2,1]
 BV BOUND     y[1,2,2]
 BV BOUND     y[1,2,3]
 BV BOUND     y[1,3,1]
 BV BOUND     y[1,3,2]
 BV BOUND     y[1,3,3]
 BV BOUND     y[1,4,1]
 BV BOUND     y[1,4,2]
 BV BOUND     y[1,4,3]
 BV BOUND     y[2,1,1]
 BV BOUND     y[2,1,2]
 BV BOUND     y[2,1,3]
 BV BOUND     y[2,2,1]
 BV BOUND     y[2,2,2]
 BV BOUND     y[2,2,3]
 BV BOUND     y[2,3,1]
 BV BOUND     y[2,3,2]
 BV BOUND     y[2,3,3]
 BV BOUND     y[2,4,1]
 BV BOUND     y[2,4,2]
 BV BOUND     y[2,4,3]
 BV BOUND     z[1,1]  
 BV BOUND     z[1,2]  
 BV BOUND     z[1,3]  
 BV BOUND     z[2,1]  
 BV BOUND     z[2,2]  
 BV BOUND     z[2,3]  
 BV BOUND     z[3,1]  
 BV BOUND     z[3,2]  
 BV BOUND     z[3,3]  
 BV BOUND     z[4,1]  
 BV BOUND     z[4,2]  
 BV BOUND     z[4,3]  
ENDATA
